(declare-fun src_reg_14_69 () (_ BitVec 32))
(declare-fun src_reg_14_19 () (_ BitVec 32))
(declare-fun src_reg_14_68 () (_ BitVec 64))
(declare-fun src_reg_14_18 () (_ BitVec 64))
(declare-fun src_reg_14_67 () (_ BitVec 64))
(declare-fun src_reg_14_17 () (_ BitVec 64))
(declare-fun src_reg_14_66 () (_ BitVec 64))
(declare-fun src_reg_14_16 () (_ BitVec 64))
(declare-fun src_reg_14_65 () (_ BitVec 64))
(declare-fun src_reg_14_15 () (_ BitVec 64))
(declare-fun src_reg_14_64 () (_ BitVec 64))
(declare-fun src_reg_14_14 () (_ BitVec 64))
(declare-fun src_reg_14_63 () (_ BitVec 64))
(declare-fun src_reg_14_13 () (_ BitVec 64))
(declare-fun src_reg_14_62 () (_ BitVec 32))
(declare-fun src_reg_14_12 () (_ BitVec 32))
(declare-fun src_reg_14_61 () (_ BitVec 32))
(declare-fun src_reg_14_11 () (_ BitVec 32))
(declare-fun src_reg_14_60 () (_ BitVec 32))
(declare-fun dst_reg_14_59 () (_ BitVec 32))
(declare-fun dst_reg_14_9 () (_ BitVec 32))
(declare-fun dst_reg_14_58 () (_ BitVec 64))
(declare-fun dst_reg_14_57 () (_ BitVec 64))
(declare-fun dst_reg_14_56 () (_ BitVec 64))
(declare-fun dst_reg_14_55 () (_ BitVec 64))
(declare-fun dst_reg_14_54 () (_ BitVec 64))
(declare-fun dst_reg_14_53 () (_ BitVec 64))
(declare-fun dst_reg_14_52 () (_ BitVec 32))
(declare-fun dst_reg_14_2 () (_ BitVec 32))
(declare-fun dst_reg_14_51 () (_ BitVec 32))
(declare-fun dst_reg_14_1 () (_ BitVec 32))
(declare-fun dst_reg_14_50 () (_ BitVec 32))
(declare-fun or10.i.i.i_14_32 () (_ BitVec 64))
(declare-fun cond46.i.i.i_14_40 () (_ BitVec 64))
(declare-fun i19.i.i.i_14_38 () (_ BitVec 64))
(declare-fun cmp41.i.i.i_14_39 () (_ BitVec 1))
(declare-fun dst_reg_14_8 () (_ BitVec 64))
(declare-fun and.i.i.i_14_25 () (_ BitVec 64))
(declare-fun cond31.i.i.i_14_37 () (_ BitVec 64))
(declare-fun i18.i.i.i_14_35 () (_ BitVec 64))
(declare-fun cmp26.i.i.i_14_36 () (_ BitVec 1))
(declare-fun dst_reg_14_7 () (_ BitVec 64))
(declare-fun cond19.i.i.i_14_34 () (_ BitVec 64))
(declare-fun i17.i.i.i_14_31 () (_ BitVec 64))
(declare-fun cmp14.i.i.i_14_33 () (_ BitVec 1))
(declare-fun and6.i.i.i_14_27 () (_ BitVec 64))
(declare-fun dst_reg_14_6 () (_ BitVec 64))
(declare-fun cond.i.i.i_14_30 () (_ BitVec 64))
(declare-fun i.i.i.i_14_28 () (_ BitVec 64))
(declare-fun cmp2.i.i.i_14_29 () (_ BitVec 1))
(declare-fun dst_reg_14_5 () (_ BitVec 64))
(declare-fun i6.i.i_14_23 () (_ BitVec 64))
(declare-fun i4.i.i_14_22 () (_ BitVec 64))
(declare-fun dst_reg_14_4 () (_ BitVec 64))
(declare-fun dst_reg_14_3 () (_ BitVec 64))
(declare-fun src_reg_14_10 () (_ BitVec 32))
(declare-fun dst_reg_14_0 () (_ BitVec 32))
(assert (and (= dst_reg_14_0 dst_reg_14_0)
     (= dst_reg_14_1 dst_reg_14_1)
     (= dst_reg_14_2 dst_reg_14_2)
     (= dst_reg_14_3 dst_reg_14_3)
     (= dst_reg_14_4 dst_reg_14_4)
     (= dst_reg_14_5 dst_reg_14_5)
     (= dst_reg_14_6 dst_reg_14_6)
     (= dst_reg_14_7 dst_reg_14_7)
     (= dst_reg_14_8 dst_reg_14_8)
     (= dst_reg_14_9 dst_reg_14_9)
     (= src_reg_14_10 src_reg_14_10)
     (= src_reg_14_11 src_reg_14_11)
     (= src_reg_14_12 src_reg_14_12)
     (= src_reg_14_13 src_reg_14_13)
     (= src_reg_14_14 src_reg_14_14)
     (= src_reg_14_15 src_reg_14_15)
     (= src_reg_14_16 src_reg_14_16)
     (= src_reg_14_17 src_reg_14_17)
     (= src_reg_14_18 src_reg_14_18)
     (= src_reg_14_19 src_reg_14_19)
     (= dst_reg_14_3 i4.i.i_14_22)
     (= dst_reg_14_4 i6.i.i_14_23)
     (= and.i.i.i_14_25 (bvand i4.i.i_14_22 #x00000000ffffffff))
     (= and6.i.i.i_14_27 (bvand i6.i.i_14_23 #x00000000ffffffff))
     (= dst_reg_14_5 i.i.i.i_14_28)
     (ite (bvsgt i.i.i.i_14_28 and.i.i.i_14_25)
          (= cmp2.i.i.i_14_29 #b1)
          (= cmp2.i.i.i_14_29 #b0))
     (ite (= cmp2.i.i.i_14_29 #b1)
          (= cond.i.i.i_14_30 i.i.i.i_14_28)
          (= cond.i.i.i_14_30 and.i.i.i_14_25))
     (= dst_reg_14_6 i17.i.i.i_14_31)
     (= or10.i.i.i_14_32 (bvor and6.i.i.i_14_27 and.i.i.i_14_25))
     (ite (bvslt i17.i.i.i_14_31 or10.i.i.i_14_32)
          (= cmp14.i.i.i_14_33 #b1)
          (= cmp14.i.i.i_14_33 #b0))
     (ite (= cmp14.i.i.i_14_33 #b1)
          (= cond19.i.i.i_14_34 i17.i.i.i_14_31)
          (= cond19.i.i.i_14_34 or10.i.i.i_14_32))
     (= dst_reg_14_7 i18.i.i.i_14_35)
     (ite (bvugt i18.i.i.i_14_35 and.i.i.i_14_25)
          (= cmp26.i.i.i_14_36 #b1)
          (= cmp26.i.i.i_14_36 #b0))
     (ite (= cmp26.i.i.i_14_36 #b1)
          (= cond31.i.i.i_14_37 i18.i.i.i_14_35)
          (= cond31.i.i.i_14_37 and.i.i.i_14_25))
     (= dst_reg_14_8 i19.i.i.i_14_38)
     (ite (bvult i19.i.i.i_14_38 or10.i.i.i_14_32)
          (= cmp41.i.i.i_14_39 #b1)
          (= cmp41.i.i.i_14_39 #b0))
     (ite (= cmp41.i.i.i_14_39 #b1)
          (= cond46.i.i.i_14_40 i19.i.i.i_14_38)
          (= cond46.i.i.i_14_40 or10.i.i.i_14_32))
     (= #x00000001 dst_reg_14_50)
     (= dst_reg_14_1 dst_reg_14_51)
     (= dst_reg_14_2 dst_reg_14_52)
     (= #x0000000000000000 dst_reg_14_53)
     (= #xffffffffffffffff dst_reg_14_54)
     (= #x8000000000000000 dst_reg_14_55)
     (= #x7fffffffffffffff dst_reg_14_56)
     (= #x0000000000000000 dst_reg_14_57)
     (= #xffffffffffffffff dst_reg_14_58)
     (= dst_reg_14_9 dst_reg_14_59)
     (= #x00000001 src_reg_14_60)
     (= src_reg_14_11 src_reg_14_61)
     (= src_reg_14_12 src_reg_14_62)
     (= src_reg_14_13 src_reg_14_63)
     (= src_reg_14_14 src_reg_14_64)
     (= src_reg_14_15 src_reg_14_65)
     (= src_reg_14_16 src_reg_14_66)
     (= src_reg_14_17 src_reg_14_67)
     (= src_reg_14_18 src_reg_14_68)
     (= src_reg_14_19 src_reg_14_69)))

;{"dst_reg":["dst_reg_14_0",[""],"dst_reg_14_1","dst_reg_14_2",["dst_reg_14_3","dst_reg_14_4"],"dst_reg_14_5","dst_reg_14_6","dst_reg_14_7","dst_reg_14_8","dst_reg_14_9"],"src_reg":["src_reg_14_10",[""],"src_reg_14_11","src_reg_14_12",["src_reg_14_13","src_reg_14_14"],"src_reg_14_15","src_reg_14_16","src_reg_14_17","src_reg_14_18","src_reg_14_19"]}
;{"dst_reg":["dst_reg_14_50",[""],"dst_reg_14_51","dst_reg_14_52",["dst_reg_14_53","dst_reg_14_54"],"dst_reg_14_55","dst_reg_14_56","dst_reg_14_57","dst_reg_14_58","dst_reg_14_59"],"src_reg":["src_reg_14_60",[""],"src_reg_14_61","src_reg_14_62",["src_reg_14_63","src_reg_14_64"],"src_reg_14_65","src_reg_14_66","src_reg_14_67","src_reg_14_68","src_reg_14_69"]}
